3207.95
0 1 2 3 4 5 6 9 10 13 16 18 0
0 7 8 11 12 14 19 22 0
0 15 20 24 30 31 0
0 28 33 37 40 41 43 46 74 0
0 29 32 35 36 45 58 34 44 0
0 38 39 42 47 55 59 0
0 48 49 51 53 54 56 57 60 62 64 65 67 68 73 17 0
0 61 63 69 72 0
0 66 70 71 75 50 21 27 0
0 52 25 26 23 0
